p tw 20 53
0 1
0 5
0 6
1 7
1 8
1 13
1 16
1 3
2 3
2 12
2 14
2 13
2 10
3 8
3 13
3 12
4 5
4 14
4 10
5 10
5 17
5 18
5 14
5 19
5 13
5 9
6 7
6 10
6 9
6 12
7 17
7 18
7 13
7 15
8 9
9 11
9 17
9 15
9 16
10 11
10 13
10 15
10 14
10 18
11 16
11 13
11 18
12 13
12 14
12 18
15 16
15 19
16 17
